RT is False
Default write of storage_offers_DA.csv just to have a file (but constraint should be inactive)
Reading model...
...model read.
creating competitive generators file...
...competitive generators recorded.
Loading data...
.. day-ahead data read.
Compiling instance...
...instance created.
Creating Offer Mitigation (model will solve as dispatch if TRUE)...
NOTE: storage offers will not be mitigated
...storage offer mitigation file created
Converting model to MPEC...
...converted
NOTE: initial MIP solve with only storage competitive to get feasible solution
Solving...

Welcome to IBM(R) ILOG(R) CPLEX(R) Interactive Optimizer 12.9.0.0
  with Simplex, Mixed Integer & Barrier Optimizers
5725-A06 5725-A29 5724-Y48 5724-Y49 5724-Y54 5724-Y55 5655-Y21
Copyright IBM Corp. 1988, 2019.  All Rights Reserved.

Type 'help' for a list of available commands.
Type 'help' followed by a command name for more
information on commands.

CPLEX> Logfile 'cplex.log' closed.
Logfile 'C:\Users\Luke\Desktop\test919\logs\tmpnuwq4q7a.cplex.log' open.
CPLEX> New value for parallel optimization mode: -1
CPLEX> New value for mixed integer optimality gap tolerance: 0.01
CPLEX> New value for integrality tolerance: 1e-09
CPLEX> New value for feasibility tolerance: 0.01
CPLEX> New value for deterministic time limit in ticks: 75000
CPLEX> Problem 'C:\Users\Luke\Desktop\test919\logs\tmp1g18o8ie.pyomo.lp' read.
Read time = 0.20 sec. (14.73 ticks)
CPLEX> Problem name         : C:\Users\Luke\Desktop\test919\logs\tmp1g18o8ie.pyomo.lp
Objective sense      : Maximize
Variables            :   53805  [Nneg: 1,  Box: 22000,  Free: 4464,
                                 Binary: 27340]
Objective nonzeros   :    9119
Linear constraints   :  123205  [Less: 41346,  Greater: 59096,  Equal: 22763]
  Nonzeros           :  291843
  RHS nonzeros       :   67581

Variables            : Min LB: -5000.000        Max UB: 1000000.       
Objective nonzeros   : Min   : 0.1000000        Max   : 2500.000       
Linear constraints   :
  Nonzeros           : Min   : 0.1000000        Max   : 1000000.       
  RHS nonzeros       : Min   : 0.1000000        Max   : 1000000.       
CPLEX> CPXPARAM_Parallel                                -1
CPXPARAM_Simplex_Tolerances_Feasibility          0.01
CPXPARAM_DetTimeLimit                            75000
CPXPARAM_MIP_Tolerances_MIPGap                   0.01
CPXPARAM_MIP_Tolerances_Integrality              1.0000000000000001e-09
Tried aggregator 3 times.
MIP Presolve eliminated 88232 rows and 18634 columns.
MIP Presolve added 3468 rows and 0 columns.
MIP Presolve modified 24977 coefficients.
Aggregator did 12975 substitutions.
Reduced MIP has 25466 rows, 21718 columns, and 72439 nonzeros.
Reduced MIP has 8588 binaries, 0 generals, 0 SOSs, and 0 indicators.
Presolve time = 0.23 sec. (173.95 ticks)
Probing fixed 381 vars, tightened 2900 bounds.
Probing time = 1.53 sec. (906.99 ticks)
Tried aggregator 2 times.
MIP Presolve eliminated 861 rows and 764 columns.
MIP Presolve modified 2303 coefficients.
Aggregator did 44 substitutions.
Reduced MIP has 24561 rows, 20910 columns, and 69821 nonzeros.
Reduced MIP has 8206 binaries, 0 generals, 0 SOSs, and 0 indicators.
Presolve time = 0.09 sec. (73.80 ticks)
Probing fixed 0 vars, tightened 1 bounds.
Probing time = 0.03 sec. (20.84 ticks)
Clique table members: 6497.
MIP emphasis: balance optimality and feasibility.
MIP search method: dynamic search.
Parallel mode: opportunistic, using up to 24 threads.
Root relaxation solution time = 0.52 sec. (353.86 ticks)

        Nodes                                         Cuts/
   Node  Left     Objective  IInf  Best Integer    Best Bound    ItCnt     Gap

      0     0     2446.8810  2080                   2446.8810     7941         
      0     0     2446.8810   746                   Cuts: 677     8247         
      0     0     2446.8810   637                   Cuts: 363     8391         
      0     0     2446.8810   575                   Cuts: 194     8464         
      0     0     2446.8810   556                    Cuts: 74     8481         
      0     0     2446.8810   547                    Cuts: 50     8494         
      0     0     2446.8810   545                    Cuts: 22     8496         
      0     0     2446.8810   543                    Cuts: 22     8498         
      0    19    infeasible                       Flowcuts: 1     8586         
Elapsed time = 10.61 sec. (7147.77 ticks, tree = 0.02 MB, solutions = 0)
    235    65     1279.5914   537                   2434.9837     9323         
    607   177     2439.7769   520                   2434.9837    15652         
   1001   308     1514.2315   520                   2434.9837    37733         
   1734   814     2442.0618   488                   2434.9837    42009         
   2765   779    -5475.5631   458                   2434.9837    41778         
   3543  2270     2432.8533   402                   2434.9837    44581         
   4296  2843     1503.6622   390                   2434.9837    45127         
   5231  3553     2439.7769   400                   2434.9837    45504         
   6212  4672     2446.8810   380                   2434.9837    45679         
   9641  7265     2439.7769   352                   2434.9837    46367         
Elapsed time = 19.11 sec. (10250.26 ticks, tree = 65.23 MB, solutions = 0)
* 11594  9410      integral     0     2449.0499     2434.9837    50536   -0.57%

Clique cuts applied:  25
Implied bound cuts applied:  30
Flow cuts applied:  404
Mixed integer rounding cuts applied:  19
Gomory fractional cuts applied:  56

Root node processing (before b&c):
  Real time             =   10.08 sec. (7124.64 ticks)
Parallel b&c, 24 threads:
  Real time             =   10.47 sec. (4012.18 ticks)
  Sync time (average)   =    0.25 sec.
  Wait time (average)   =    0.00 sec.
                          ------------
Total (root+branch&cut) =   20.55 sec. (11136.82 ticks)

Solution pool: 3 solutions saved.

MIP - Integer optimal solution:  Objective =  2.4490498591e+03
Solution time =   20.56 sec.  Iterations = 60549  Nodes = 11597
Deterministic time = 11136.97 ticks  (541.60 ticks/sec)

CPLEX> Incumbent solution written to file 'C:\Users\Luke\Desktop\test919\logs\tmpzxvlde8s.cplex.sol'.
CPLEX> NOTE: no warmstart specified for MIP iteration, default behavior is true
NOTE: resolving with all competitive generators using storage-only solution to warmstart
Solving...

Welcome to IBM(R) ILOG(R) CPLEX(R) Interactive Optimizer 12.9.0.0
  with Simplex, Mixed Integer & Barrier Optimizers
5725-A06 5725-A29 5724-Y48 5724-Y49 5724-Y54 5724-Y55 5655-Y21
Copyright IBM Corp. 1988, 2019.  All Rights Reserved.

Type 'help' for a list of available commands.
Type 'help' followed by a command name for more
information on commands.

CPLEX> Logfile 'cplex.log' closed.
Logfile 'C:\Users\Luke\Desktop\test919\logs\tmpywfmntrk.cplex.log' open.
CPLEX> New value for parallel optimization mode: -1
CPLEX> New value for mixed integer optimality gap tolerance: 0.01
CPLEX> New value for integrality tolerance: 1e-09
CPLEX> New value for feasibility tolerance: 0.01
CPLEX> New value for deterministic time limit in ticks: 75000
CPLEX> Problem 'C:\Users\Luke\Desktop\test919\logs\tmp69kaelx7.pyomo.lp' read.
Read time = 0.20 sec. (14.75 ticks)
CPLEX> MIP start file 'C:\Users\Luke\Desktop\test919\logs\tmpdzuuvg8o.cplex.mst' read.
CPLEX> Problem name         : C:\Users\Luke\Desktop\test919\logs\tmp69kaelx7.pyomo.lp
Objective sense      : Maximize
Variables            :   54525  [Nneg: 1,  Box: 22720,  Free: 4464,
                                 Binary: 27340]
Objective nonzeros   :    9839
Linear constraints   :  123205  [Less: 41346,  Greater: 59096,  Equal: 22763]
  Nonzeros           :  291843
  RHS nonzeros       :   67581

Variables            : Min LB: -5000.000        Max UB: 1000000.       
Objective nonzeros   : Min   : 0.1000000        Max   : 2500.000       
Linear constraints   :
  Nonzeros           : Min   : 0.1000000        Max   : 1000000.       
  RHS nonzeros       : Min   : 0.1000000        Max   : 1000000.       
CPLEX> CPXPARAM_Parallel                                -1
CPXPARAM_Simplex_Tolerances_Feasibility          0.01
CPXPARAM_DetTimeLimit                            75000
CPXPARAM_MIP_Tolerances_MIPGap                   0.01
CPXPARAM_MIP_Tolerances_Integrality              1.0000000000000001e-09
Warning:  No solution found from 1 MIP starts.
Retaining values of one MIP start for possible repair.
Tried aggregator 3 times.
MIP Presolve eliminated 88232 rows and 19354 columns.
MIP Presolve added 3468 rows and 0 columns.
MIP Presolve modified 24977 coefficients.
Aggregator did 12975 substitutions.
Reduced MIP has 25466 rows, 21718 columns, and 72439 nonzeros.
Reduced MIP has 8588 binaries, 0 generals, 0 SOSs, and 0 indicators.
Presolve time = 0.23 sec. (174.31 ticks)
Probing fixed 381 vars, tightened 2900 bounds.
Probing time = 1.56 sec. (906.99 ticks)
Tried aggregator 2 times.
MIP Presolve eliminated 861 rows and 764 columns.
MIP Presolve modified 2303 coefficients.
Aggregator did 44 substitutions.
Reduced MIP has 24561 rows, 20910 columns, and 69821 nonzeros.
Reduced MIP has 8206 binaries, 0 generals, 0 SOSs, and 0 indicators.
Presolve time = 0.08 sec. (73.80 ticks)
Probing fixed 0 vars, tightened 1 bounds.
Probing time = 0.05 sec. (20.84 ticks)
Clique table members: 6497.
MIP emphasis: balance optimality and feasibility.
MIP search method: dynamic search.
Parallel mode: opportunistic, using up to 24 threads.
Root relaxation solution time = 0.53 sec. (353.86 ticks)

        Nodes                                         Cuts/
   Node  Left     Objective  IInf  Best Integer    Best Bound    ItCnt     Gap

      0     0     2446.8810  2080                   2446.8810     7941         
      0     0     2446.8810   746                   Cuts: 677     8247         
      0     0     2446.8810   637                   Cuts: 363     8391         
      0     0     2446.8810   575                   Cuts: 194     8464         
      0     0     2446.8810   556                    Cuts: 74     8481         
      0     0     2446.8810   547                    Cuts: 50     8494         
      0     0     2446.8810   545                    Cuts: 22     8496         
      0     0     2446.8810   543                    Cuts: 22     8498         
Repair heuristic found nothing.
      0    20    infeasible                       Flowcuts: 1     8658         
Elapsed time = 11.06 sec. (7307.50 ticks, tree = 0.02 MB, solutions = 0)
    294    27     2432.8533   533                   2434.9837     8766         
    586   159    infeasible                         2434.9837    17867         
    868   279     2446.8810   506                   2434.9837    34453         
   1444  1131     2442.0618   492                   2434.9837    43521         
   2383   939     2440.9880   463                   2434.9837    43056         
   3182  1794     2443.5958   413                   2434.9837    44247         
   3948  2613     2432.8533   393                   2434.9837    45106         
   5031  3222     2432.8533   371                   2434.9837    45564         
   6386  4653     1493.8546   428                   2434.9837    45886         
   8555  7400    -6540.9404   178                   2434.9837    70056         
Elapsed time = 19.33 sec. (10408.91 ticks, tree = 242.52 MB, solutions = 0)
  10645  8906    -7508.2598   165                   2434.9837    89661         
* 11752+ 2621                         1261.7545     2434.9837            92.98%
* 12564 10329      integral     0     2446.8810     2434.9837    92782   -0.49%

Clique cuts applied:  25
Implied bound cuts applied:  30
Flow cuts applied:  405
Mixed integer rounding cuts applied:  19
Gomory fractional cuts applied:  56

Root node processing (before b&c):
  Real time             =   10.55 sec. (7281.45 ticks)
Parallel b&c, 24 threads:
  Real time             =   13.30 sec. (5063.40 ticks)
  Sync time (average)   =    0.33 sec.
  Wait time (average)   =    0.00 sec.
                          ------------
Total (root+branch&cut) =   23.84 sec. (12344.85 ticks)

Solution pool: 4 solutions saved.

MIP - Integer optimal solution:  Objective =  2.4468810349e+03
Solution time =   23.84 sec.  Iterations = 94739  Nodes = 13083
Deterministic time = 12345.01 ticks  (517.74 ticks/sec)

CPLEX> Incumbent solution written to file 'C:\Users\Luke\Desktop\test919\logs\tmpfo03nrs7.cplex.sol'.
CPLEX> Exporting results... 
